400
200 200
1 140 567
2 140 85
3 140 533
4 138 230
5 138 613
6 138 840
7 138 894
8 138 627
9 138 339
10 137 636
11 137 174
12 136 357
13 136 123
14 136 356
15 136 856
16 135 976
17 135 709
18 135 618
19 135 963
20 134 675
21 134 513
22 134 736
23 134 669
24 133 313
25 132 885
26 132 496
27 132 975
28 131 231
29 131 353
30 131 348
31 131 522
32 131 831
33 131 893
34 131 603
35 130 337
36 130 342
37 130 216
38 129 843
39 129 330
40 129 752
41 129 146
42 128 497
43 128 168
44 127 572
45 127 652
46 127 685
47 127 150
48 127 130
49 126 95
50 126 744
51 126 726
52 125 709
53 125 220
54 124 240
55 124 998
56 124 382
57 124 10
58 123 68
59 123 570
60 123 222
61 123 285
62 122 18
63 122 412
64 122 850
65 122 591
66 121 599
67 121 758
68 121 996
69 121 859
70 120 746
71 119 900
72 119 232
73 119 397
74 119 205
75 118 634
76 118 336
77 118 247
78 118 525
79 118 196
80 117 594
81 117 609
82 117 110
83 117 364
84 117 405
85 116 460
86 115 839
87 115 905
88 115 683
89 114 79
90 114 987
91 114 465
92 113 872
93 113 242
94 113 590
95 113 579
96 113 909
97 112 954
98 112 873
99 112 153
100 112 869
101 111 370
102 111 282
103 110 671
104 109 44
105 109 132
106 109 940
107 108 675
108 107 694
109 107 320
110 107 420
111 107 749
112 106 400
113 106 719
114 105 697
115 105 237
116 105 757
117 105 895
118 105 138
119 104 471
120 104 964
121 104 339
122 104 528
123 104 980
124 104 6
125 104 690
126 103 569
127 103 16
128 103 824
129 103 461
130 103 601
131 102 183
132 102 133
133 102 804
134 102 696
135 101 943
136 101 832
137 101 875
138 101 514
139 100 509
140 100 212
141 100 905
142 100 409
143 99 31
144 99 953
145 99 989
146 99 681
147 98 91
148 98 397
149 97 269
150 97 123
151 97 502
152 97 455
153 97 419
154 96 262
155 96 650
156 96 675
157 95 433
158 95 623
159 95 667
160 95 892
161 95 816
162 94 333
163 94 929
164 94 89
165 94 299
166 94 976
167 93 897
168 92 789
169 92 170
170 92 280
171 92 374
172 92 650
173 91 473
174 91 228
175 91 341
176 91 333
177 90 145
178 90 184
179 90 626
180 90 996
181 89 434
182 89 913
183 88 345
184 88 538
185 88 686
186 87 343
187 87 509
188 87 386
189 86 933
190 86 1000
191 86 627
192 86 639
193 85 310
194 85 581
195 85 130
196 85 333
197 84 307
198 84 460
199 84 141
200 83 678
201 83 737
202 83 492
203 83 443
204 83 88
205 82 890
206 82 39
207 81 905
208 81 982
209 81 84
210 80 655
211 80 789
212 79 871
213 79 504
214 79 198
215 79 625
216 79 417
217 78 14
218 77 288
219 77 545
220 76 864
221 76 356
222 75 144
223 75 141
224 75 91
225 75 940
226 75 414
227 75 673
228 74 738
229 74 0
230 74 784
231 74 991
232 73 489
233 73 815
234 73 313
235 72 109
236 72 832
237 72 972
238 70 807
239 70 698
240 69 662
241 69 353
242 69 472
243 69 994
244 68 52
245 68 483
246 68 451
247 67 312
248 67 475
249 67 42
250 66 824
251 66 465
252 66 368
253 66 640
254 66 204
255 65 690
256 64 544
257 64 31
258 64 766
259 63 228
260 63 375
261 62 254
262 62 456
263 62 465
264 62 906
265 62 586
266 62 509
267 61 368
268 61 830
269 60 929
270 59 785
271 59 542
272 59 825
273 59 373
274 58 548
275 58 880
276 58 841
277 58 202
278 58 856
279 58 978
280 57 595
281 57 244
282 57 194
283 57 493
284 57 661
285 57 681
286 57 20
287 56 381
288 56 710
289 55 431
290 55 187
291 54 148
292 54 806
293 53 547
294 53 991
295 53 959
296 53 428
297 53 392
298 53 583
299 51 275
300 51 257
301 51 578
302 50 114
303 50 725
304 49 2
305 48 972
306 48 169
307 47 896
308 47 310
309 46 34
310 45 617
311 45 947
312 45 676
313 45 596
314 45 821
315 45 955
316 45 967
317 44 685
318 44 729
319 44 804
320 44 222
321 43 294
322 42 163
323 42 179
324 42 12
325 41 872
326 41 719
327 41 678
328 41 282
329 40 35
330 40 638
331 39 859
332 39 965
333 39 621
334 39 812
335 38 101
336 38 322
337 38 480
338 38 134
339 38 151
340 38 11
341 38 972
342 37 540
343 37 930
344 36 247
345 36 176
346 34 453
347 34 894
348 34 748
349 34 199
350 33 413
351 33 137
352 33 786
353 33 691
354 32 154
355 32 865
356 32 650
357 32 29
358 31 181
359 31 131
360 30 404
361 30 953
362 30 969
363 30 316
364 30 193
365 29 396
366 29 976
367 29 960
368 29 22
369 29 845
370 29 477
371 28 812
372 28 611
373 28 541
374 28 948
375 28 543
376 27 984
377 26 729
378 25 910
379 25 727
380 24 599
381 24 702
382 24 53
383 24 665
384 23 114
385 23 420
386 23 822
387 23 595
388 22 955
389 22 616
390 22 962
391 21 340
392 21 539
393 21 859
394 21 469
395 21 623
396 21 684
397 20 96
398 20 76
399 20 769
400 20 956
